c WARNING: for repeatability, setting FPU to use double precision
d VARIABLES            61354        
d CONSTRAINTS          260703       
c ============================[ Problem Statistics ]=============================
c |                                                                             |
c |  Number of variables:         61354                                         |
c |  Number of clauses:          260703                                         |
c |  Parse time:                   0.03 s                                       |
c |                                                                             |
c ============================[ Search Statistics ]==============================
c | Conflicts |          ORIGINAL         |          LEARNT          | Progress |
c |           |    Vars  Clauses Literals |    Limit  Clauses Lit/Cl |          |
c ===============================================================================
c |       100 |   48760   224823   547106 |    82435      100     10 | 20.527 % |
c |       250 |   48746   224823   547106 |    90678      249     42 | 20.550 % |
c |       475 |   48746   224753   546938 |    99746      473     53 | 20.550 % |
c |       812 |   48746   224753   546938 |   109721      810     73 | 20.550 % |
c |      1318 |   48746   224753   546938 |   120693     1316     71 | 20.550 % |
c |      2077 |   48746   224753   546938 |   132762     2075     70 | 20.550 % |
c |      3216 |   48746   224753   546938 |   146038     3214     78 | 20.550 % |
c |      4924 |   48746   224753   546938 |   160642     4922     80 | 20.550 % |
c |      7486 |   48746   224753   546938 |   176706     7484     79 | 20.550 % |
c |     11330 |   48746   224753   546938 |   194377    11328     84 | 20.550 % |
c |     17096 |   48746   224753   546938 |   213815    17094     85 | 20.550 % |
c |     25745 |   48746   224753   546938 |   235196    25743     87 | 20.550 % |
c |     38719 |   48746   224753   546938 |   258716    38717     84 | 20.550 % |
c |     58180 |   48746   224753   546938 |   284588    58178     85 | 20.550 % |
c |     87372 |   48746   224753   546938 |   313047    87370     83 | 20.550 % |
c ===============================================================================
c restarts              : 255
c conflicts             : 95818          (3187 /sec)
c decisions             : 229839         (0.00 % random) (7643 /sec)
c propagations          : 118532387      (3941898 /sec)
c conflict literals     : 7693733        (49.31 % deleted)
d RESTARTS             255
d FAILURES             95818        
d NODES                229839       
d BACKTRACKS           229839       
d PROPAGATIONS         118532387    
d NOGOODSIZE           80.30 
d MEMORY               73.00 
d TIME                 30.0699 

s UNSATISFIABLE
